
Gurobi 6.5.2 (win64) logging started 07/24/16 17:25:30


Gurobi 6.5.2 (win64) logging started 07/24/16 17:25:30

Optimize a model with 2013 rows, 596 columns and 5231 nonzeros
Coefficient statistics:
  Matrix range    [6e-08, 1e+03]
  Objective range [1e+00, 1e+00]
  Bounds range    [1e+00, 1e+00]
  RHS range       [6e-06, 1e+03]
Presolve removed 1808 rows and 382 columns
Presolve time: 0.00s
Presolved: 205 rows, 214 columns, 892 nonzeros
Variable types: 214 continuous, 0 integer (0 binary)

Root relaxation: objective 1.782584e+01, 215 iterations, 0.00 seconds

    Nodes    |    Current Node    |     Objective Bounds      |     Work
 Expl Unexpl |  Obj  Depth IntInf | Incumbent    BestBd   Gap | It/Node Time

*    0     0               0      17.8258383   17.82584  0.00%     -    0s

Explored 0 nodes (215 simplex iterations) in 0.00 seconds
Thread count was 8 (of 8 available processors)

Optimal solution found (tolerance 1.00e-04)
Best objective 1.782583831692e+01, best bound 1.782583831692e+01, gap 0.0%

Wrote requested result file 'H1\instance6\\Results6EC_Sol3.lp'

